certificates/rado_a6_c232_N39.cnf
c Rad2 upper bound instance: x1 + 6*x2 - x3 = 232, interval [1,39]
p cnf 39 314
1 3 39 0
-1 -3 -39 0
2 4 39 0
-2 -4 -39 0
3 5 39 0
-3 -5 -39 0
4 6 39 0
-4 -6 -39 0
1 5 38 0
-1 -5 -38 0
5 7 39 0
-5 -7 -39 0
2 6 38 0
-2 -6 -38 0
6 8 39 0
-6 -8 -39 0
3 7 38 0
-3 -7 -38 0
7 9 39 0
-7 -9 -39 0
4 8 38 0
-4 -8 -38 0
8 10 39 0
-8 -10 -39 0
5 9 38 0
-5 -9 -38 0
9 11 39 0
-9 -11 -39 0
6 10 38 0
-6 -10 -38 0
10 12 39 0
-10 -12 -39 0
1 11 37 0
-1 -11 -37 0
7 11 38 0
-7 -11 -38 0
11 13 39 0
-11 -13 -39 0
2 12 37 0
-2 -12 -37 0
8 12 38 0
-8 -12 -38 0
12 14 39 0
-12 -14 -39 0
3 13 37 0
-3 -13 -37 0
9 13 38 0
-9 -13 -38 0
13 15 39 0
-13 -15 -39 0
4 14 37 0
-4 -14 -37 0
10 14 38 0
-10 -14 -38 0
14 16 39 0
-14 -16 -39 0
5 15 37 0
-5 -15 -37 0
11 15 38 0
-11 -15 -38 0
15 17 39 0
-15 -17 -39 0
6 16 37 0
-6 -16 -37 0
12 16 38 0
-12 -16 -38 0
16 18 39 0
-16 -18 -39 0
1 17 36 0
-1 -17 -36 0
7 17 37 0
-7 -17 -37 0
13 17 38 0
-13 -17 -38 0
17 19 39 0
-17 -19 -39 0
2 18 36 0
-2 -18 -36 0
8 18 37 0
-8 -18 -37 0
14 18 38 0
-14 -18 -38 0
18 20 39 0
-18 -20 -39 0
3 19 36 0
-3 -19 -36 0
9 19 37 0
-9 -19 -37 0
15 19 38 0
-15 -19 -38 0
19 21 39 0
-19 -21 -39 0
4 20 36 0
-4 -20 -36 0
10 20 37 0
-10 -20 -37 0
16 20 38 0
-16 -20 -38 0
20 22 39 0
-20 -22 -39 0
5 21 36 0
-5 -21 -36 0
11 21 37 0
-11 -21 -37 0
17 21 38 0
-17 -21 -38 0
21 23 39 0
-21 -23 -39 0
6 22 36 0
-6 -22 -36 0
12 22 37 0
-12 -22 -37 0
18 22 38 0
-18 -22 -38 0
22 24 39 0
-22 -24 -39 0
1 23 35 0
-1 -23 -35 0
7 23 36 0
-7 -23 -36 0
13 23 37 0
-13 -23 -37 0
19 23 38 0
-19 -23 -38 0
23 25 39 0
-23 -25 -39 0
2 24 35 0
-2 -24 -35 0
8 24 36 0
-8 -24 -36 0
14 24 37 0
-14 -24 -37 0
20 24 38 0
-20 -24 -38 0
24 26 39 0
-24 -26 -39 0
3 25 35 0
-3 -25 -35 0
9 25 36 0
-9 -25 -36 0
15 25 37 0
-15 -25 -37 0
21 25 38 0
-21 -25 -38 0
25 27 39 0
-25 -27 -39 0
4 26 35 0
-4 -26 -35 0
10 26 36 0
-10 -26 -36 0
16 26 37 0
-16 -26 -37 0
22 26 38 0
-22 -26 -38 0
26 28 39 0
-26 -28 -39 0
5 27 35 0
-5 -27 -35 0
11 27 36 0
-11 -27 -36 0
17 27 37 0
-17 -27 -37 0
23 27 38 0
-23 -27 -38 0
27 29 39 0
-27 -29 -39 0
6 28 35 0
-6 -28 -35 0
12 28 36 0
-12 -28 -36 0
18 28 37 0
-18 -28 -37 0
24 28 38 0
-24 -28 -38 0
28 30 39 0
-28 -30 -39 0
1 29 34 0
-1 -29 -34 0
7 29 35 0
-7 -29 -35 0
13 29 36 0
-13 -29 -36 0
19 29 37 0
-19 -29 -37 0
25 29 38 0
-25 -29 -38 0
29 31 39 0
-29 -31 -39 0
2 30 34 0
-2 -30 -34 0
8 30 35 0
-8 -30 -35 0
14 30 36 0
-14 -30 -36 0
20 30 37 0
-20 -30 -37 0
26 30 38 0
-26 -30 -38 0
30 32 39 0
-30 -32 -39 0
3 31 34 0
-3 -31 -34 0
9 31 35 0
-9 -31 -35 0
15 31 36 0
-15 -31 -36 0
21 31 37 0
-21 -31 -37 0
27 31 38 0
-27 -31 -38 0
31 33 39 0
-31 -33 -39 0
4 32 34 0
-4 -32 -34 0
10 32 35 0
-10 -32 -35 0
16 32 36 0
-16 -32 -36 0
22 32 37 0
-22 -32 -37 0
28 32 38 0
-28 -32 -38 0
32 34 39 0
-32 -34 -39 0
5 33 34 0
-5 -33 -34 0
11 33 35 0
-11 -33 -35 0
17 33 36 0
-17 -33 -36 0
23 33 37 0
-23 -33 -37 0
29 33 38 0
-29 -33 -38 0
33 35 39 0
-33 -35 -39 0
6 34 0
-6 -34 0
12 34 35 0
-12 -34 -35 0
18 34 36 0
-18 -34 -36 0
24 34 37 0
-24 -34 -37 0
30 34 38 0
-30 -34 -38 0
34 36 39 0
-34 -36 -39 0
1 33 35 0
-1 -33 -35 0
7 34 35 0
-7 -34 -35 0
13 35 0
-13 -35 0
19 35 36 0
-19 -35 -36 0
25 35 37 0
-25 -35 -37 0
31 35 38 0
-31 -35 -38 0
35 37 39 0
-35 -37 -39 0
2 33 36 0
-2 -33 -36 0
8 34 36 0
-8 -34 -36 0
14 35 36 0
-14 -35 -36 0
20 36 0
-20 -36 0
26 36 37 0
-26 -36 -37 0
32 36 38 0
-32 -36 -38 0
36 38 39 0
-36 -38 -39 0
3 33 37 0
-3 -33 -37 0
9 34 37 0
-9 -34 -37 0
15 35 37 0
-15 -35 -37 0
21 36 37 0
-21 -36 -37 0
27 37 0
-27 -37 0
33 37 38 0
-33 -37 -38 0
37 39 0
-37 -39 0
4 33 38 0
-4 -33 -38 0
10 34 38 0
-10 -34 -38 0
16 35 38 0
-16 -35 -38 0
22 36 38 0
-22 -36 -38 0
28 37 38 0
-28 -37 -38 0
34 38 0
-34 -38 0
5 33 39 0
-5 -33 -39 0
11 34 39 0
-11 -34 -39 0
17 35 39 0
-17 -35 -39 0
23 36 39 0
-23 -36 -39 0
29 37 39 0
-29 -37 -39 0
35 38 39 0
-35 -38 -39 0
