certificates/rado_a6_c232_N39.drat
-39 0
37 0
-27 0
25 0
29 0
-15 0
-35 0
-19 0
-38 0
13 0
11 0
17 0
0
